
Gurobi 10.0.1 (linux64) logging started Wed May 10 02:11:51 2023

Set parameter LogFile to value "logFiles/A-2L-A/A-2L-6U-41F-15V-365D-basic.log"
Gurobi Optimizer version 10.0.1 build v10.0.1rc0 (linux64)

CPU model: Intel(R) Xeon(R) Gold 5115 CPU @ 2.40GHz, instruction set [SSE2|AVX|AVX2|AVX512]
Thread count: 20 physical cores, 40 logical processors, using up to 20 threads

Optimize a model with 64289 rows, 1386243 columns and 11318827 nonzeros
Model fingerprint: 0x05a9f64f
Variable types: 2844 continuous, 1383399 integer (1383399 binary)
Coefficient statistics:
  Matrix range     [1e+00, 2e+05]
  Objective range  [4e+01, 2e+07]
  Bounds range     [1e+00, 1e+00]
  RHS range        [1e+00, 5e+06]
Presolve removed 16155 rows and 39819 columns (presolve time = 5s) ...
Presolve removed 17941 rows and 39820 columns (presolve time = 10s) ...
Presolve removed 17941 rows and 39820 columns (presolve time = 15s) ...
Presolve removed 17942 rows and 39823 columns (presolve time = 20s) ...
Presolve removed 17943 rows and 39855 columns (presolve time = 25s) ...
Presolve removed 17943 rows and 39855 columns (presolve time = 30s) ...
Presolve removed 17835 rows and 39741 columns
Presolve time: 34.60s
Presolved: 46454 rows, 1346502 columns, 8761423 nonzeros
Variable types: 2874 continuous, 1343628 integer (1343574 binary)
Deterministic concurrent LP optimizer: primal simplex, dual simplex, and barrier
Showing barrier log only...

Root barrier log...

Elapsed ordering time = 5s
Ordering time: 7.90s

Barrier statistics:
 AA' NZ     : 3.702e+06
 Factor NZ  : 3.932e+07 (roughly 900 MB of memory)
 Factor Ops : 1.126e+11 (less than 1 second per iteration)
 Threads    : 17

                  Objective                Residual
Iter       Primal          Dual         Primal    Dual     Compl     Time
   0  -1.86390751e+17  2.22740025e+12  1.90e+10 4.36e+05  2.29e+11    64s
   1  -4.29524168e+16  5.40844261e+12  4.38e+09 3.77e+05  5.32e+10    65s
   2  -4.00610160e+15  5.64754620e+12  4.09e+08 1.40e-09  5.05e+09    66s
   3  -1.76180718e+14  2.69293854e+12  1.80e+07 1.32e-09  2.23e+08    67s
   4  -1.33957414e+14  2.21231769e+12  1.37e+07 1.96e-08  1.71e+08    68s
   5  -7.20042090e+13  1.80462634e+12  7.35e+06 1.40e-08  9.37e+07    69s
   6  -3.99651742e+13  9.16985667e+11  4.08e+06 2.33e-09  5.23e+07    70s
   7  -3.06337548e+12  7.21164419e+11  3.13e+05 1.16e-09  4.28e+06    71s
   8  -9.91807132e+11  6.47345501e+11  1.01e+05 9.31e-10  1.53e+06    72s
   9  -4.74849480e+11  4.98832136e+11  4.86e+04 9.31e-10  7.74e+05    73s
  10  -1.53058556e+11  3.87565909e+11  1.58e+04 8.15e-10  3.24e+05    74s
  11  -2.42975058e+10  1.23204243e+11  2.71e+03 1.05e-09  6.99e+04    76s
  12  -7.91046848e+09  4.86548727e+10  1.04e+03 2.33e-09  2.56e+04    77s
  13  -4.32292485e+09  1.44271205e+10  6.79e+02 2.86e-09  9.52e+03    78s
  14  -6.91311544e+08  9.18493907e+09  3.14e+02 4.22e-09  4.81e+03    79s
  15   7.26391872e+08  6.87149766e+09  1.72e+02 3.14e-09  2.89e+03    80s
  16   1.21401821e+09  5.39589982e+09  1.23e+02 3.38e-09  1.98e+03    81s
  17   1.73318683e+09  4.16277083e+09  7.09e+01 3.97e-09  1.14e+03    82s
  18   2.15167065e+09  3.45771117e+09  2.91e+01 6.75e-09  5.78e+02    84s
  19   2.20742408e+09  3.11634636e+09  2.36e+01 6.46e-09  4.03e+02    84s
  20   2.26177280e+09  2.83231282e+09  1.82e+01 8.61e-09  2.53e+02    86s
  21   2.32001904e+09  2.69290899e+09  1.26e+01 9.23e-09  1.60e+02    87s
  22   2.33839936e+09  2.62980679e+09  1.08e+01 8.50e-09  1.22e+02    88s
  23   2.36817953e+09  2.57513142e+09  7.93e+00 8.61e-09  8.27e+01    89s
  24   2.39558251e+09  2.54308845e+09  5.30e+00 9.66e-09  5.64e+01    90s
  25   2.41620898e+09  2.51861225e+09  3.34e+00 1.26e-08  3.76e+01    91s
  26   2.42596375e+09  2.49948381e+09  2.44e+00 1.05e-08  2.58e+01    93s
  27   2.43275719e+09  2.48891835e+09  1.85e+00 1.38e-08  1.92e+01    94s
  28   2.43837744e+09  2.48502354e+09  1.38e+00 1.48e-08  1.59e+01    95s
  29   2.44170749e+09  2.47967586e+09  1.11e+00 1.36e-08  1.28e+01    96s
  30   2.44563073e+09  2.47329186e+09  8.12e-01 1.73e-08  9.17e+00    98s
  31   2.44893958e+09  2.46981116e+09  5.94e-01 1.26e-08  6.87e+00    99s
  32   2.45045782e+09  2.46799792e+09  5.02e-01 1.36e-08  5.73e+00   101s
  33   2.45176951e+09  2.46639378e+09  4.28e-01 1.14e-08  4.73e+00   102s
  34   2.45386742e+09  2.46530315e+09  3.14e-01 1.09e-08  3.72e+00   103s
  35   2.45557973e+09  2.46419322e+09  2.32e-01 1.07e-08  2.79e+00   105s
  36   2.45627318e+09  2.46351573e+09  2.02e-01 1.11e-08  2.33e+00   107s
  37   2.45791408e+09  2.46295007e+09  1.30e-01 1.15e-08  1.64e+00   108s
  38   2.45837086e+09  2.46264939e+09  1.12e-01 1.07e-08  1.38e+00   110s
  39   2.45885892e+09  2.46239579e+09  9.50e-02 1.06e-08  1.14e+00   111s
  40   2.45949765e+09  2.46215733e+09  7.20e-02 9.55e-09  8.56e-01   113s
  41   2.46025727e+09  2.46204176e+09  4.46e-02 1.07e-08  5.81e-01   114s
  42   2.46060149e+09  2.46185154e+09  3.24e-02 1.01e-08  4.05e-01   116s
  43   2.46074077e+09  2.46183173e+09  2.76e-02 1.13e-08  3.55e-01   118s
  44   2.46092231e+09  2.46176649e+09  2.13e-02 1.02e-08  2.75e-01   119s
  45   2.46108772e+09  2.46170527e+09  1.55e-02 1.00e-08  2.01e-01   121s
  46   2.46119633e+09  2.46166104e+09  1.18e-02 1.05e-08  1.51e-01   122s
  47   2.46137398e+09  2.46162942e+09  5.84e-03 9.43e-09  8.42e-02   124s
  48   2.46146376e+09  2.46159774e+09  2.74e-03 8.50e-09  4.48e-02   125s
  49   2.46149163e+09  2.46157075e+09  1.80e-03 7.22e-09  2.61e-02   127s
  50   2.46151922e+09  2.46155905e+09  8.65e-04 8.21e-09  1.32e-02   128s
  51   2.46153092e+09  2.46154926e+09  4.66e-04 9.31e-09  5.98e-03   129s
  52   2.46153584e+09  2.46154652e+09  3.03e-04 1.16e-08  3.43e-03   130s
  53   2.46154119e+09  2.46154572e+09  1.23e-04 1.02e-08  1.47e-03   131s
  54   2.46154278e+09  2.46154519e+09  7.14e-05 1.38e-08  7.73e-04   132s
  55   2.46154487e+09  2.46154507e+09  4.35e-06 1.20e-08  6.65e-05   134s
  56   2.46154502e+09  2.46154502e+09  3.04e-07 1.34e-08  1.13e-06   135s
  57   2.46154502e+09  2.46154502e+09  4.03e-10 9.08e-09  8.42e-10   136s

Barrier solved model in 57 iterations and 136.11 seconds (139.45 work units)
Optimal objective 2.46154502e+09


Root crossover log...

   36738 DPushes remaining with DInf 0.0000000e+00               136s
       0 DPushes remaining with DInf 0.0000000e+00               139s

    2980 PPushes remaining with PInf 6.2988285e-06               140s
       0 PPushes remaining with PInf 0.0000000e+00               140s

  Push phase complete: Pinf 0.0000000e+00, Dinf 2.0700550e-02    140s


Root simplex log...

Iteration    Objective       Primal Inf.    Dual Inf.      Time
   39713    2.4615450e+09   0.000000e+00   2.069993e-02    140s
   39714    2.4615450e+09   0.000000e+00   0.000000e+00    140s
Concurrent spin time: 0.03s

Solved with barrier
   39715    2.4615450e+09   0.000000e+00   0.000000e+00    141s
Extra simplex iterations after uncrush: 1

Root relaxation: objective 2.461545e+09, 39715 iterations, 95.03 seconds (82.88 work units)
Total elapsed time = 145.68s

    Nodes    |    Current Node    |     Objective Bounds      |     Work
 Expl Unexpl |  Obj  Depth IntInf | Incumbent    BestBd   Gap | It/Node Time

     0     0 2.4615e+09    0 1317          - 2.4615e+09      -     -  149s
     0     0 2.4613e+09    0 1419          - 2.4613e+09      -     -  682s
     0     0 2.4612e+09    0 1475          - 2.4612e+09      -     - 1244s
     0     0 2.4612e+09    0 1515          - 2.4612e+09      -     - 1439s
     0     0 2.4612e+09    0 1452          - 2.4612e+09      -     - 2147s
     0     0 2.4612e+09    0 1462          - 2.4612e+09      -     - 2367s
     0     0 2.4612e+09    0 1417          - 2.4612e+09      -     - 2424s
     0     0 2.4612e+09    0 1432          - 2.4612e+09      -     - 2927s
     0     0 2.4612e+09    0 1437          - 2.4612e+09      -     - 3029s
     0     0 2.4612e+09    0 1458          - 2.4612e+09      -     - 3296s
     0     0 2.4612e+09    0 1425          - 2.4612e+09      -     - 3354s
     0     0 2.4612e+09    0 1440          - 2.4612e+09      -     - 3486s
     0     0 2.4612e+09    0 1440          - 2.4612e+09      -     - 3486s
     0     0 2.4612e+09    0 1445          - 2.4612e+09      -     - 3561s
     0     0 2.4612e+09    0 1482          - 2.4612e+09      -     - 3732s
     0     0 2.4612e+09    0 1485          - 2.4612e+09      -     - 4328s
     0     0 2.4612e+09    0 1488          - 2.4612e+09      -     - 4505s
     0     0 2.4612e+09    0 1443          - 2.4612e+09      -     - 4626s
     0     0 2.4612e+09    0 1486          - 2.4612e+09      -     - 4908s
     0     0 2.4612e+09    0 1373          - 2.4612e+09      -     - 4919s
     0     2 2.4612e+09    0 1311          - 2.4612e+09      -     - 7184s
     1     4 2.4612e+09    1 1350          - 2.4612e+09      - 12988 7490s
     3     8 2.4612e+09    2 1418          - 2.4612e+09      -  9249 8598s
     7    16 2.4612e+09    3 1378          - 2.4612e+09      - 12503 9245s
    15    28 2.4612e+09    4 1454          - 2.4612e+09      -  9332 10800s

Cutting planes:
  Cover: 88
  Implied bound: 231
  Clique: 4
  MIR: 132
  StrongCG: 2
  Flow cover: 242
  GUB cover: 9
  Zero half: 2
  Network: 45
  RLT: 36
  Relax-and-lift: 34

Explored 27 nodes (526445 simplex iterations) in 10801.65 seconds (11001.06 work units)
Thread count was 20 (of 40 available processors)

Solution count 0

Time limit reached
Best objective -, best bound 2.461221225517e+09, gap -
IIS computation: initial model status unknown, solving to determine model status
Presolve removed 16155 rows and 39822 columns (presolve time = 5s) ...
Presolve removed 17942 rows and 39855 columns (presolve time = 10s) ...
Presolve removed 17942 rows and 39855 columns (presolve time = 15s) ...
Presolve removed 17949 rows and 39855 columns (presolve time = 20s) ...
Presolve removed 17949 rows and 39855 columns (presolve time = 25s) ...
Presolve removed 17949 rows and 39855 columns (presolve time = 30s) ...
Presolve removed 17949 rows and 39855 columns (presolve time = 35s) ...
Presolve removed 17835 rows and 39741 columns
Presolve time: 36.19s
Presolved: 46454 rows, 1346502 columns, 8761423 nonzeros
Variable types: 2874 continuous, 1343628 integer (1343574 binary)
Deterministic concurrent LP optimizer: primal simplex, dual simplex, and barrier
Showing barrier log only...

Root barrier log...

Elapsed ordering time = 5s
Ordering time: 8.40s

Barrier statistics:
 AA' NZ     : 3.702e+06
 Factor NZ  : 3.932e+07 (roughly 900 MB of memory)
 Factor Ops : 1.126e+11 (less than 1 second per iteration)
 Threads    : 17

                  Objective                Residual
Iter       Primal          Dual         Primal    Dual     Compl     Time
   0  -0.00000000e+00  2.28778481e+05  1.90e+10 0.00e+00  2.32e+04    67s
   1  -0.00000000e+00  6.46568143e+05  4.20e+09 1.56e-02  5.16e+03    68s
   2  -0.00000000e+00  5.37994914e+05  1.19e+08 8.54e-05  1.47e+02    69s
   3  -0.00000000e+00  2.05115913e+05  1.78e+07 5.70e-06  2.20e+01    70s
   4  -0.00000000e+00  1.68227524e+05  7.98e+06 4.86e-06  8.94e+00    72s
   5  -0.00000000e+00  1.36343037e+05  2.90e+06 4.04e-06  2.97e+00    73s
   6  -0.00000000e+00  5.14325019e+04  7.76e+05 1.46e-06  5.20e-01    74s
   7  -0.00000000e+00  3.73626877e+04  2.42e+05 1.11e-06  1.46e-01    75s
   8  -0.00000000e+00  1.79705990e+04  1.02e+05 6.40e-07  4.36e-02    76s
   9  -0.00000000e+00  1.54515357e+04  5.29e+04 5.30e-07  2.31e-02    77s
  10  -0.00000000e+00  6.04281263e+03  1.66e+04 3.80e-07  5.58e-03    79s
  11  -0.00000000e+00  1.21615210e+03  2.42e+03 2.26e-07  7.45e-04    80s
  12  -0.00000000e+00  4.23125198e+02  1.24e+03 1.29e-07  2.76e-04    82s
  13  -0.00000000e+00  2.80155625e+02  8.11e+02 1.03e-07  1.77e-04    83s
  14  -0.00000000e+00  1.87882360e+02  4.86e+02 8.36e-08  1.11e-04    84s
  15  -0.00000000e+00  9.20071017e+01  2.16e+02 6.46e-08  5.17e-05    85s
  16  -0.00000000e+00  6.80428786e+01  1.26e+02 5.56e-08  3.55e-05    87s
  17  -0.00000000e+00  4.29570508e+01  1.17e+02 4.50e-08  2.52e-05    89s
  18  -0.00000000e+00  3.47977468e+01  7.68e+01 3.06e-08  1.92e-05    90s
  19  -0.00000000e+00  1.95006043e+01  4.24e+01 3.24e-08  1.06e-05    92s
  20  -0.00000000e+00  9.79121554e+00  2.54e+01 3.46e-08  5.61e-06    93s
  21  -0.00000000e+00  4.89338543e+00  9.73e+00 4.15e-08  2.57e-06    95s
  22  -0.00000000e+00  2.25670819e+00  4.92e+00 4.21e-08  1.20e-06    96s
  23  -0.00000000e+00  8.31736525e-01  2.17e+00 3.03e-08  4.66e-07    98s
  24  -0.00000000e+00  3.04402145e-01  1.35e+00 1.51e-08  1.88e-07    99s
  25  -0.00000000e+00  4.05246828e-02  8.02e-01 4.96e-09  4.11e-08   100s
  26  -0.00000000e+00  6.26524605e-03  5.22e-03 1.26e-09  5.12e-09   102s
  27  -0.00000000e+00  4.00646909e-06  3.13e-06 1.34e-12  3.32e-12   104s
  28  -0.00000000e+00  1.86565953e-11  1.66e-10 2.21e-16  1.55e-17   105s

Barrier solved model in 28 iterations and 105.34 seconds (115.88 work units)
Optimal objective -0.00000000e+00

  Building initial crossover basis                               117s
  Building initial crossover basis                               121s
  Building initial crossover basis                               126s
  Building initial crossover basis                               131s
  Building initial crossover basis                               136s
  Building initial crossover basis                               140s
  Building initial crossover basis                               145s
  Building initial crossover basis                               151s
  Building initial crossover basis                               156s
  Building initial crossover basis                               160s
  Building initial crossover basis                               166s
  Building initial crossover basis                               171s
  Building initial crossover basis                               176s
  Building initial crossover basis                               180s
  Building initial crossover basis                               186s
  Building initial crossover basis                               191s
  Building initial crossover basis                               196s

Root crossover log...

   37715 DPushes remaining with DInf 2.5078973e+01               199s
       0 DPushes remaining with DInf 0.0000000e+00               199s

     575 PPushes remaining with PInf 1.6238372e-04               199s
       0 PPushes remaining with PInf 0.0000000e+00               199s

  Push phase complete: Pinf 0.0000000e+00, Dinf 0.0000000e+00    199s


Root simplex log...

Iteration    Objective       Primal Inf.    Dual Inf.      Time
    3162   -0.0000000e+00   0.000000e+00   0.000000e+00    199s
Concurrent spin time: 0.02s

Solved with barrier
    3162   -0.0000000e+00   0.000000e+00   0.000000e+00    200s

Root relaxation: objective -0.000000e+00, 3162 iterations, 150.89 seconds (132.02 work units)
Total elapsed time = 200.35s
Total elapsed time = 469.34s
Total elapsed time = 528.03s
Total elapsed time = 818.54s
Total elapsed time = 875.63s

    Nodes    |    Current Node    |     Objective Bounds      |     Work
 Expl Unexpl |  Obj  Depth IntInf | Incumbent    BestBd   Gap | It/Node Time

     0     0   -0.00000    0   62          -   -0.00000      -     - 1429s
     0     0   -0.00000    0  343          -   -0.00000      -     - 2118s
     0     0   -0.00000    0  388          -   -0.00000      -     - 2752s
     0     0   -0.00000    0   49          -   -0.00000      -     - 3254s
     0     0   -0.00000    0   50          -   -0.00000      -     - 3261s
     0     0   -0.00000    0  271          -   -0.00000      -     - 4459s
     0     0   -0.00000    0  314          -   -0.00000      -     - 4706s
     0     0   -0.00000    0   44          -   -0.00000      -     - 5175s
     0     0   -0.00000    0   68          -   -0.00000      -     - 5194s
     0     0   -0.00000    0   37          -   -0.00000      -     - 5371s
     0     0   -0.00000    0   36          -   -0.00000      -     - 5929s
     0     0   -0.00000    0   23          -   -0.00000      -     - 5965s
     0     0   -0.00000    0   26          -   -0.00000      -     - 5972s
     0     0   -0.00000    0   30          -   -0.00000      -     - 6014s
     0     0   -0.00000    0   37          -   -0.00000      -     - 6021s
     0     0   -0.00000    0   22          -   -0.00000      -     - 6313s
     0     0   -0.00000    0   25          -   -0.00000      -     - 6320s
     0     0   -0.00000    0   19          -   -0.00000      -     - 6355s
     0     0   -0.00000    0   41          -   -0.00000      -     - 6462s
     0     0   -0.00000    0   18          -   -0.00000      -     - 6507s
     0     0   -0.00000    0   18          -   -0.00000      -     - 6529s
     0     2   -0.00000    0   18          -   -0.00000      -     - 7219s
     1     4   -0.00000    1   28          -   -0.00000      - 388402 7222s
     3     8   -0.00000    2   27          -   -0.00000      - 129507 7233s
     7    16   -0.00000    3   69          -   -0.00000      - 56795 7252s
    15    32   -0.00000    4   61          -   -0.00000      - 28260 7274s
    31    52   -0.00000    5   71          -   -0.00000      - 14514 7681s
    51    72   -0.00000    6   80          -   -0.00000      - 12234 7864s
    71    92   -0.00000    6   92          -   -0.00000      - 10146 8079s
    91   112   -0.00000    7   92          -   -0.00000      -  9616 8236s
   111   143   -0.00000    8   93          -   -0.00000      - 10337 8643s
   142   185   -0.00000   10   27          -   -0.00000      - 13703 9392s
   184   342   -0.00000   11   32          -   -0.00000      - 41045 10190s
   341   601   -0.00000   24   41          -   -0.00000      - 40543 10801s

Cutting planes:
  Cover: 48
  Implied bound: 89
  Clique: 9
  MIR: 22
  Flow cover: 110
  GUB cover: 8
  Network: 14
  RLT: 11

Explored 601 nodes (34286790 simplex iterations) in 10802.09 seconds (11818.23 work units)
Thread count was 20 (of 40 available processors)

Solution count 0

Time limit reached
Best objective -, best bound -0.000000000000e+00, gap -
IIS runtime: 10802.97 seconds (11818.23 work units)
